NAME : gr229
TYPE : OP
DIMENSION : 229
COST_LIMIT : 121142
ROUTE_NODES : 217
ROUTE_SCORE : 11482
ROUTE_COST : 121085
NODE_SEQUENCE_SECTION
1
2
3
4
5
6
7
8
10
11
19
51
52
53
55
54
58
59
60
61
62
64
65
66
63
67
68
69
71
72
73
78
77
76
75
74
103
102
101
100
94
93
91
90
79
80
88
89
86
85
25
84
87
81
82
83
57
56
24
23
22
21
20
18
17
16
12
13
14
15
26
27
30
33
38
34
35
36
37
95
96
99
98
97
104
105
107
106
112
115
118
119
121
122
123
120
117
116
113
108
109
110
124
166
125
111
126
127
128
129
130
131
132
138
137
136
152
141
140
139
142
143
144
145
146
147
148
149
151
154
155
150
204
212
206
207
208
213
214
215
216
227
228
226
225
218
217
219
220
210
211
203
202
221
222
223
200
201
158
157
156
159
160
161
162
164
173
165
199
176
175
174
172
163
135
134
133
171
169
167
168
177
179
181
180
178
182
183
185
186
187
197
198
196
195
194
192
193
191
190
189
188
50
184
46
47
49
44
43
45
42
41
40
39
32
29
28
-1
DEPOT_SECTION
1
-1
EOF
